NAME : portgen-19-23
COMMENT : portgen N=19, seed=23
TYPE : TSP
DIMENSION : 19
EDGE_WEIGHT_TYPE : EUC_2D
NODE_COORD_SECTION
1 62624 397336
2 939499 929683
3 820770 864271
4 81264 843170
5 184719 547498
6 520589 879635
7 234899 534625
8 747109 989683
9 666751 649133
10 883630 442276
11 606047 793400
12 373773 53765
13 563813 231235
14 45198 442253
15 718430 829697
16 119239 686473
17 160194 572706
18 976629 670395
19 480677 980951
